500
1000
626
625
624
621
621
620
618
618
617
616
615
615
615
614
614
609
605
603
602
602
601
600
599
597
597
597
592
592
589
588
587
583
583
582
582
579
579
578
578
572
571
568
567
567
566
564
564
564
563
563
563
562
562
562
560
560
560
559
555
555
555
554
554
554
551
550
549
548
547
546
545
545
542
542
541
538
537
536
535
535
535
534
532
532
531
531
530
528
527
522
515
514
514
510
510
509
509
508
507
507
507
505
504
504
502
501
501
499
496
494
491
491
490
490
486
485
485
485
485
482
482
480
480
477
477
475
473
472
472
472
470
470
466
465
463
462
461
460
456
456
454
453
451
451
449
447
445
444
444
440
440
437
436
435
435
435
435
433
433
428
428
426
426
425
424
423
417
415
415
414
411
411
411
409
408
403
403
401
399
399
398
397
396
396
395
393
390
390
389
385
385
384
383
383
382
382
379
379
378
376
374
374
373
373
368
366
365
363
362
362
362
360
359
357
357
356
355
353
352
352
351
351
350
349
348
347
346
346
345
344
343
342
342
341
341
340
340
340
340
340
340
339
338
337
337
336
335
332
331
328
325
324
324
323
321
321
319
318
318
314
313
312
310
310
310
309
309
308
306
306
306
305
301
296
295
295
293
293
292
292
292
290
290
290
289
287
286
283
282
281
281
278
277
275
273
272
270
269
268
268
263
262
260
260
257
256
256
256
255
255
248
247
246
244
243
242
239
238
235
235
233
231
229
229
228
227
227
227
226
226
225
224
220
213
212
212
210
209
208
208
206
205
204
204
202
201
199
198
197
196
195
194
194
194
191
191
188
188
183
182
181
181
181
181
181
177
176
175
175
173
173
172
171
171
170
170
170
169
167
166
166
165
164
163
163
161
161
161
161
159
157
157
155
155
154
152
152
152
152
150
150
149
148
147
146
145
144
141
140
140
139
137
137
136
136
136
134
131
130
130
130
126
125
124
123
119
119
118
117
117
115
113
113
112
112
112
112
111
111
109
108
104
99
96
96
94
93
91
91
91
91
90
90
89
88
88
81
77
74
74
72
70
69
67
67
66
65
65
64
63
59
58
57
56
56
56
55
53
53
51
50
48
47
47
46
46
44
44
43
43
40
40
39
38
38
37
37
36
36
35
